p cnf 172 560
-172 16 0
-172 15 0
172 -15 -16 0
-171 -16 0
-171 -15 0
171 15 16 0
76 -171 0
76 -172 0
-76 172 171 0
-170 12 0
-170 11 0
170 -11 -12 0
-169 -12 0
-169 -11 0
169 11 12 0
75 -169 0
75 -170 0
-75 170 169 0
-168 8 0
-168 7 0
168 -7 -8 0
-167 -8 0
-167 -7 0
167 7 8 0
74 -167 0
74 -168 0
-74 168 167 0
-166 4 0
-166 3 0
166 -3 -4 0
-165 -4 0
-165 -3 0
165 3 4 0
73 -165 0
73 -166 0
-73 166 165 0
28 76 0
28 75 0
28 74 0
28 73 0
-28 -73 -74 -75 -76 0
-164 16 0
-164 14 0
164 -14 -16 0
-163 -16 0
-163 -14 0
163 14 16 0
72 -163 0
72 -164 0
-72 164 163 0
-162 12 0
-162 10 0
162 -10 -12 0
-161 -12 0
-161 -10 0
161 10 12 0
71 -161 0
71 -162 0
-71 162 161 0
-160 8 0
-160 6 0
160 -6 -8 0
-159 -8 0
-159 -6 0
159 6 8 0
70 -159 0
70 -160 0
-70 160 159 0
-158 4 0
-158 2 0
158 -2 -4 0
-157 -4 0
-157 -2 0
157 2 4 0
69 -157 0
69 -158 0
-69 158 157 0
27 72 0
27 71 0
27 70 0
27 69 0
-27 -69 -70 -71 -72 0
-156 15 0
-156 14 0
156 -14 -15 0
-155 -15 0
-155 -14 0
155 14 15 0
68 -155 0
68 -156 0
-68 156 155 0
-154 11 0
-154 10 0
154 -10 -11 0
-153 -11 0
-153 -10 0
153 10 11 0
67 -153 0
67 -154 0
-67 154 153 0
-152 7 0
-152 6 0
152 -6 -7 0
-151 -7 0
-151 -6 0
151 6 7 0
66 -151 0
66 -152 0
-66 152 151 0
-150 3 0
-150 2 0
150 -2 -3 0
-149 -3 0
-149 -2 0
149 2 3 0
65 -149 0
65 -150 0
-65 150 149 0
26 68 0
26 67 0
26 66 0
26 65 0
-26 -65 -66 -67 -68 0
-148 16 0
-148 13 0
148 -13 -16 0
-147 -16 0
-147 -13 0
147 13 16 0
64 -147 0
64 -148 0
-64 148 147 0
-146 12 0
-146 9 0
146 -9 -12 0
-145 -12 0
-145 -9 0
145 9 12 0
63 -145 0
63 -146 0
-63 146 145 0
-144 8 0
-144 5 0
144 -5 -8 0
-143 -8 0
-143 -5 0
143 5 8 0
62 -143 0
62 -144 0
-62 144 143 0
-142 4 0
-142 1 0
142 -1 -4 0
-141 -4 0
-141 -1 0
141 1 4 0
61 -141 0
61 -142 0
-61 142 141 0
25 64 0
25 63 0
25 62 0
25 61 0
-25 -61 -62 -63 -64 0
-140 15 0
-140 13 0
140 -13 -15 0
-139 -15 0
-139 -13 0
139 13 15 0
60 -139 0
60 -140 0
-60 140 139 0
-138 11 0
-138 9 0
138 -9 -11 0
-137 -11 0
-137 -9 0
137 9 11 0
59 -137 0
59 -138 0
-59 138 137 0
-136 7 0
-136 5 0
136 -5 -7 0
-135 -7 0
-135 -5 0
135 5 7 0
58 -135 0
58 -136 0
-58 136 135 0
-134 3 0
-134 1 0
134 -1 -3 0
-133 -3 0
-133 -1 0
133 1 3 0
57 -133 0
57 -134 0
-57 134 133 0
24 60 0
24 59 0
24 58 0
24 57 0
-24 -57 -58 -59 -60 0
-132 14 0
-132 13 0
132 -13 -14 0
-131 -14 0
-131 -13 0
131 13 14 0
56 -131 0
56 -132 0
-56 132 131 0
-130 10 0
-130 9 0
130 -9 -10 0
-129 -10 0
-129 -9 0
129 9 10 0
55 -129 0
55 -130 0
-55 130 129 0
-128 6 0
-128 5 0
128 -5 -6 0
-127 -6 0
-127 -5 0
127 5 6 0
54 -127 0
54 -128 0
-54 128 127 0
-126 2 0
-126 1 0
126 -1 -2 0
-125 -2 0
-125 -1 0
125 1 2 0
53 -125 0
53 -126 0
-53 126 125 0
23 56 0
23 55 0
23 54 0
23 53 0
-23 -53 -54 -55 -56 0
-124 16 0
-124 12 0
124 -12 -16 0
-123 -16 0
-123 -12 0
123 12 16 0
52 -123 0
52 -124 0
-52 124 123 0
-122 15 0
-122 11 0
122 -11 -15 0
-121 -15 0
-121 -11 0
121 11 15 0
51 -121 0
51 -122 0
-51 122 121 0
-120 14 0
-120 10 0
120 -10 -14 0
-119 -14 0
-119 -10 0
119 10 14 0
50 -119 0
50 -120 0
-50 120 119 0
-118 13 0
-118 9 0
118 -9 -13 0
-117 -13 0
-117 -9 0
117 9 13 0
49 -117 0
49 -118 0
-49 118 117 0
22 52 0
22 51 0
22 50 0
22 49 0
-22 -49 -50 -51 -52 0
-116 16 0
-116 8 0
116 -8 -16 0
-115 -16 0
-115 -8 0
115 8 16 0
48 -115 0
48 -116 0
-48 116 115 0
-114 15 0
-114 7 0
114 -7 -15 0
-113 -15 0
-113 -7 0
113 7 15 0
47 -113 0
47 -114 0
-47 114 113 0
-112 14 0
-112 6 0
112 -6 -14 0
-111 -14 0
-111 -6 0
111 6 14 0
46 -111 0
46 -112 0
-46 112 111 0
-110 13 0
-110 5 0
110 -5 -13 0
-109 -13 0
-109 -5 0
109 5 13 0
45 -109 0
45 -110 0
-45 110 109 0
21 48 0
21 47 0
21 46 0
21 45 0
-21 -45 -46 -47 -48 0
-108 12 0
-108 8 0
108 -8 -12 0
-107 -12 0
-107 -8 0
107 8 12 0
44 -107 0
44 -108 0
-44 108 107 0
-106 11 0
-106 7 0
106 -7 -11 0
-105 -11 0
-105 -7 0
105 7 11 0
43 -105 0
43 -106 0
-43 106 105 0
-104 10 0
-104 6 0
104 -6 -10 0
-103 -10 0
-103 -6 0
103 6 10 0
42 -103 0
42 -104 0
-42 104 103 0
-102 9 0
-102 5 0
102 -5 -9 0
-101 -9 0
-101 -5 0
101 5 9 0
41 -101 0
41 -102 0
-41 102 101 0
20 44 0
20 43 0
20 42 0
20 41 0
-20 -41 -42 -43 -44 0
-100 16 0
-100 4 0
100 -4 -16 0
-99 -16 0
-99 -4 0
99 4 16 0
40 -99 0
40 -100 0
-40 100 99 0
-98 15 0
-98 3 0
98 -3 -15 0
-97 -15 0
-97 -3 0
97 3 15 0
39 -97 0
39 -98 0
-39 98 97 0
-96 14 0
-96 2 0
96 -2 -14 0
-95 -14 0
-95 -2 0
95 2 14 0
38 -95 0
38 -96 0
-38 96 95 0
-94 13 0
-94 1 0
94 -1 -13 0
-93 -13 0
-93 -1 0
93 1 13 0
37 -93 0
37 -94 0
-37 94 93 0
19 40 0
19 39 0
19 38 0
19 37 0
-19 -37 -38 -39 -40 0
-92 12 0
-92 4 0
92 -4 -12 0
-91 -12 0
-91 -4 0
91 4 12 0
36 -91 0
36 -92 0
-36 92 91 0
-90 11 0
-90 3 0
90 -3 -11 0
-89 -11 0
-89 -3 0
89 3 11 0
35 -89 0
35 -90 0
-35 90 89 0
-88 10 0
-88 2 0
88 -2 -10 0
-87 -10 0
-87 -2 0
87 2 10 0
34 -87 0
34 -88 0
-34 88 87 0
-86 9 0
-86 1 0
86 -1 -9 0
-85 -9 0
-85 -1 0
85 1 9 0
33 -85 0
33 -86 0
-33 86 85 0
18 36 0
18 35 0
18 34 0
18 33 0
-18 -33 -34 -35 -36 0
-84 8 0
-84 4 0
84 -4 -8 0
-83 -8 0
-83 -4 0
83 4 8 0
32 -83 0
32 -84 0
-32 84 83 0
-82 7 0
-82 3 0
82 -3 -7 0
-81 -7 0
-81 -3 0
81 3 7 0
31 -81 0
31 -82 0
-31 82 81 0
-80 6 0
-80 2 0
80 -2 -6 0
-79 -6 0
-79 -2 0
79 2 6 0
30 -79 0
30 -80 0
-30 80 79 0
-78 5 0
-78 1 0
78 -1 -5 0
-77 -5 0
-77 -1 0
77 1 5 0
29 -77 0
29 -78 0
-29 78 77 0
17 32 0
17 31 0
17 30 0
17 29 0
-17 -29 -30 -31 -32 0
-4 -12 -16 0
-4 -8 -16 0
4 12 16 0
4 8 16 0
-3 -11 -15 0
-3 -7 -15 0
3 11 15 0
3 7 15 0
-2 -10 -14 0
-2 -6 -14 0
2 10 14 0
2 6 14 0
-1 -9 -13 0
-1 -5 -13 0
1 9 13 0
1 5 13 0
-13 -15 -16 0
-13 -14 -16 0
13 15 16 0
13 14 16 0
-9 -11 -12 0
-9 -10 -12 0
9 11 12 0
9 10 12 0
-5 -7 -8 0
-5 -6 -8 0
5 7 8 0
5 6 8 0
-1 -3 -4 0
-1 -2 -4 0
1 3 4 0
1 2 4 0
-8 -12 -16 0
8 12 16 0
-4 -8 -12 0
4 8 12 0
-7 -11 -15 0
7 11 15 0
-3 -7 -11 0
3 7 11 0
-6 -10 -14 0
6 10 14 0
-2 -6 -10 0
2 6 10 0
-5 -9 -13 0
5 9 13 0
-1 -5 -9 0
1 5 9 0
-14 -15 -16 0
14 15 16 0
-13 -14 -15 0
13 14 15 0
-10 -11 -12 0
10 11 12 0
-9 -10 -11 0
9 10 11 0
-6 -7 -8 0
6 7 8 0
-5 -6 -7 0
5 6 7 0
-2 -3 -4 0
2 3 4 0
-1 -2 -3 0
1 2 3 0
4 0
3 0
2 0
1 0
